NAME 
ROWS
 N  OBJ
 L  R0      
 E  R1      
 E  R2      
 E  R3      
 E  R4      
 E  R5      
 E  R6      
 E  R7      
 E  R8      
 E  R9      
 E  R10     
 E  R11     
 E  R12     
 E  R13     
 E  R14     
 E  R15     
 E  R16     
 E  R17     
 E  R18     
 E  R19     
 E  R20     
 E  R21     
 E  R22     
 E  R23     
 E  R24     
 E  R25     
 E  R26     
 E  R27     
 E  R28     
 E  R29     
 E  R30     
COLUMNS
    MARKER    'MARKER'                 'INTORG'
    I0(3)     OBJ       151
    I0(3)     R0        -124
    I0(3)     R1        14
    I0(3)     R30       1
    I1(3)     OBJ       -189
    I1(3)     R0        23
    I1(3)     R2        18
    I1(3)     R30       1
    I2(3)     OBJ       137
    I2(3)     R0        -93
    I2(3)     R3        9
    I2(3)     R30       1
    I3(3)     OBJ       126
    I3(3)     R0        143
    I3(3)     R4        19
    I3(3)     R30       1
    I4(3)     OBJ       -137
    I4(3)     R0        184
    I4(3)     R5        13
    I4(3)     R30       1
    I5(3)     OBJ       -113
    I5(3)     R0        -95
    I5(3)     R6        8
    I5(3)     R30       1
    I6(3)     OBJ       -125
    I6(3)     R0        39
    I6(3)     R7        17
    I6(3)     R30       1
    I7(3)     OBJ       193
    I7(3)     R0        64
    I7(3)     R8        9
    I7(3)     R30       1
    I8(3)     OBJ       -160
    I8(3)     R0        -138
    I8(3)     R9        2
    I8(3)     R30       1
    I9(3)     OBJ       -68
    I9(3)     R0        -36
    I9(3)     R10       14
    I9(3)     R30       1
    I10(3)    OBJ       -137
    I10(3)    R0        -101
    I10(3)    R11       4
    I10(3)    R30       1
    I11(3)    OBJ       45
    I11(3)    R0        84
    I11(3)    R12       6
    I11(3)    R30       1
    I12(3)    OBJ       116
    I12(3)    R0        119
    I12(3)    R13       6
    I12(3)    R30       1
    I13(3)    OBJ       20
    I13(3)    R0        -193
    I13(3)    R14       19
    I13(3)    R30       1
    I14(3)    OBJ       -8
    I14(3)    R0        194
    I14(3)    R15       1
    I14(3)    R30       1
    I15(3)    OBJ       -90
    I15(3)    R0        -97
    I15(3)    R16       12
    I15(3)    R30       1
    I16(3)    OBJ       -195
    I16(3)    R0        94
    I16(3)    R17       13
    I16(3)    R30       1
    I17(3)    OBJ       196
    I17(3)    R0        38
    I17(3)    R18       10
    I17(3)    R30       1
    I18(3)    OBJ       -160
    I18(3)    R0        129
    I18(3)    R19       19
    I18(3)    R30       1
    I19(3)    OBJ       -151
    I19(3)    R0        127
    I19(3)    R20       16
    I19(3)    R30       1
    I20(3)    OBJ       139
    I20(3)    R0        -97
    I20(3)    R21       5
    I20(3)    R30       1
    I21(3)    OBJ       -89
    I21(3)    R0        199
    I21(3)    R22       16
    I21(3)    R30       1
    I22(3)    OBJ       -64
    I22(3)    R0        100
    I22(3)    R23       14
    I22(3)    R30       1
    I23(3)    OBJ       171
    I23(3)    R0        -200
    I23(3)    R24       -1
    I23(3)    R30       1
    I24(3)    OBJ       171
    I24(3)    R0        -84
    I24(3)    R25       17
    I24(3)    R30       1
    I25(3)    OBJ       -141
    I25(3)    R0        162
    I25(3)    R26       12
    I25(3)    R30       1
    I26(3)    OBJ       -156
    I26(3)    R0        -60
    I26(3)    R27       5
    I26(3)    R30       1
    I27(3)    OBJ       128
    I27(3)    R0        73
    I27(3)    R28       2
    I27(3)    R30       1
    MARKER    'MARKER'                 'INTEND'
    C28(28)   OBJ       9
    C28(28)   R0        1
    C28(28)   R2        17
    C28(28)   R3        18
    C28(28)   R4        7
    C28(28)   R5        14
    C28(28)   R6        12
    C28(28)   R7        14
    C28(28)   R8        16
    C28(28)   R9        18
    C28(28)   R10       13
    C28(28)   R11       18
    C28(28)   R12       4
    C28(28)   R13       4
    C28(28)   R14       2
    C28(28)   R15       2
    C28(28)   R16       13
    C28(28)   R17       4
    C28(28)   R18       3
    C28(28)   R19       10
    C28(28)   R20       17
    C28(28)   R21       2
    C28(28)   R22       19
    C28(28)   R23       16
    C28(28)   R24       19
    C28(28)   R25       10
    C28(28)   R27       8
    C28(28)   R28       10
    C28(28)   R29       14
    C29(29)   R0        9
    C29(29)   R1        3
    C29(29)   R2        2
    C29(29)   R3        6
    C29(29)   R4        18
    C29(29)   R5        4
    C29(29)   R6        1
    C29(29)   R7        10
    C29(29)   R8        2
    C29(29)   R9        19
    C29(29)   R10       4
    C29(29)   R11       5
    C29(29)   R12       13
    C29(29)   R13       3
    C29(29)   R14       14
    C29(29)   R15       17
    C29(29)   R16       2
    C29(29)   R17       16
    C29(29)   R18       6
    C29(29)   R19       4
    C29(29)   R20       12
    C29(29)   R21       13
    C29(29)   R22       12
    C29(29)   R23       19
    C29(29)   R24       14
    C29(29)   R25       7
    C29(29)   R26       3
    C29(29)   R27       19
    C29(29)   R29       3
    C30(1)    R1        1
    C31(1)    R2        1
    C32(1)    R3        1
    C33(1)    R4        1
    C34(1)    R5        1
    C35(1)    R6        1
    C36(1)    R7        1
    C37(1)    R8        1
    C38(1)    R9        1
    C39(1)    R10       1
    C40(1)    R11       1
    C41(1)    R12       1
    C42(1)    R13       1
    C43(1)    R14       1
    C44(1)    R15       1
    C45(1)    R16       1
    C46(1)    R17       1
    C47(1)    R18       1
    C48(1)    R19       1
    C49(1)    R20       1
    C50(1)    R21       1
    C51(1)    R22       1
    C52(1)    R23       1
    C53(1)    R24       1
    C54(1)    R25       1
    C55(1)    R26       1
    C56(1)    R27       1
    C57(1)    R28       1
    C58(1)    R29       1
    C59(1)    R30       1
RHS
    RHS1      R0        420
    RHS1      R1        54
    RHS1      R2        86
    RHS1      R3        68
    RHS1      R4        64
    RHS1      R5        78
    RHS1      R6        67
    RHS1      R7        73
    RHS1      R8        96
    RHS1      R9        66
    RHS1      R10       56
    RHS1      R11       57
    RHS1      R12       70
    RHS1      R13       60
    RHS1      R14       92
    RHS1      R15       82
    RHS1      R16       93
    RHS1      R17       89
    RHS1      R18       95
    RHS1      R19       73
    RHS1      R20       72
    RHS1      R21       71
    RHS1      R22       76
    RHS1      R23       62
    RHS1      R24       52
    RHS1      R25       90
    RHS1      R26       67
    RHS1      R27       51
    RHS1      R28       75
    RHS1      R29       52
    RHS1      R30       9
BOUNDS
 UP BND1      I0(3)     1
 UP BND1      I1(3)     1
 UP BND1      I2(3)     1
 UP BND1      I3(3)     1
 UP BND1      I4(3)     1
 UP BND1      I5(3)     1
 UP BND1      I6(3)     1
 UP BND1      I7(3)     1
 UP BND1      I8(3)     1
 UP BND1      I9(3)     1
 UP BND1      I10(3)    1
 UP BND1      I11(3)    1
 UP BND1      I12(3)    1
 UP BND1      I13(3)    1
 UP BND1      I14(3)    1
 UP BND1      I15(3)    1
 UP BND1      I16(3)    1
 UP BND1      I17(3)    1
 UP BND1      I18(3)    1
 UP BND1      I19(3)    1
 UP BND1      I20(3)    1
 UP BND1      I21(3)    1
 UP BND1      I22(3)    1
 UP BND1      I23(3)    1
 UP BND1      I24(3)    1
 UP BND1      I25(3)    1
 UP BND1      I26(3)    1
 UP BND1      I27(3)    1
ENDATA
